TYPE : Vertex Cover
DIMENSION: 27
EDGE_DATA_SECTION:
0 10
0 12
0 23
0 24
1 9
1 16
2 3
2 5
2 9
2 13
2 18
2 21
2 26
3 7
3 13
3 14
3 17
3 18
4 8
4 10
4 17
5 19
5 21
5 22
6 16
6 17
6 19
6 21
6 22
6 26
7 9
7 10
7 15
7 17
8 9
8 10
8 15
8 16
8 17
8 21
8 24
8 25
8 26
9 11
9 14
9 18
9 19
9 22
9 23
9 24
10 20
10 22
10 25
11 19
11 20
11 21
11 23
11 24
11 26
12 15
12 16
12 18
13 21
13 23
14 18
14 21
15 18
15 24
17 22
17 23
18 21
18 22
18 23
20 23
20 24
20 25
20 26
21 23
21 26
22 23
22 26
24 26
-1
VERTEX_DEGREE:
4.0 2.0 7.0 6.0 3.0 4.0 6.0 5.0 10.0 11.0 7.0 7.0 4.0 4.0 4.0 5.0 4.0 7.0 9.0 4.0 6.0 10.0 8.0 9.0 7.0 3.0 8.0
VERTEX_COVER:
0 3 5 6 8 9 10 11 13 15 16 17 18 20 21 23 26
EOF
